p edge 40 78 10
v 3 5 14 21
v 5 3 24 26 29 35
v 4 1 12 20 23
v 2 16 22
v 4 10 15 25 33
v 5 6 31 34 36 40
v 4 7 8 18 38
v 2 17 37
v 6 2 4 27 28 30 39
v 5 9 11 13 19 32
e 1 22
e 1 36
e 2 4
e 2 7
e 2 20
e 3 20
e 3 27
e 4 5
e 4 14
e 4 25
e 5 15
e 5 32
e 5 35
e 6 9
e 6 17
e 6 20
e 6 30
e 7 28
e 7 37
e 8 14
e 8 18
e 8 25
e 8 26
e 8 29
e 9 22
e 9 23
e 9 24
e 9 30
e 9 31
e 9 38
e 10 17
e 10 34
e 11 12
e 11 24
e 12 17
e 12 19
e 13 29
e 13 30
e 15 20
e 16 17
e 16 38
e 17 40
e 18 27
e 18 29
e 19 26
e 19 34
e 19 36
e 19 40
e 20 25
e 20 40
e 21 22
e 21 26
e 21 28
e 21 36
e 22 27
e 22 33
e 24 28
e 24 30
e 24 31
e 25 31
e 25 34
e 26 27
e 26 33
e 26 34
e 27 30
e 27 34
e 28 30
e 28 31
e 28 38
e 29 33
e 29 34
e 29 39
e 29 40
e 32 39
e 34 40
e 35 38
e 35 39
e 39 40
